
Gurobi 10.0.0 (linux64) logging started Wed Nov 16 15:07:13 2022

Set parameter LogFile to value "../results/k04_n250_d070/k04_n250_d089_DSJC250.9_A-MILO_log.txt"
Gurobi Optimizer version 10.0.0 build v10.0.0rc2 (linux64)

CPU model: Intel(R) Xeon(R) CPU E5-2630 v4 @ 2.20GHz, instruction set [SSE2|AVX|AVX2]
Thread count: 20 physical cores, 40 logical processors, using up to 10 threads

Optimize a model with 335014 rows, 28897 columns and 1005292 nonzeros
Model fingerprint: 0x360bb1fc
Coefficient statistics:
  Matrix range     [1e+00, 1e+00]
  Objective range  [1e+00, 1e+00]
  Bounds range     [1e+00, 1e+00]
  RHS range        [1e+00, 2e+00]
Presolve removed 2035 rows and 230 columns
Presolve time: 2.38s
Presolved: 28667 rows, 362324 columns, 1028531 nonzeros

Concurrent LP optimizer: primal simplex, dual simplex, and barrier
Showing barrier log only...

Ordering time: 0.22s

Barrier statistics:
 Free vars  : 249
 AA' NZ     : 3.335e+05
 Factor NZ  : 7.455e+05 (roughly 160 MB of memory)
 Factor Ops : 3.321e+08 (less than 1 second per iteration)
 Threads    : 8

                  Objective                Residual
Iter       Primal          Dual         Primal    Dual     Compl     Time
   0   1.24437928e+05  2.26000000e+02  1.55e+00 1.00e+00  5.90e-01     3s
   1   4.63379197e+04  2.22272887e+04  0.00e+00 4.83e-05  6.17e-02     4s
   2   3.08674348e+04  2.75390058e+04  0.00e+00 3.10e-06  8.52e-03     4s
   3   2.80606509e+04  2.78563106e+04  0.00e+00 1.97e-07  5.23e-04     4s
   4   2.80282060e+04  2.78897772e+04  0.00e+00 1.52e-07  3.54e-04     4s
   5   2.79861525e+04  2.78144296e+04  0.00e+00 8.05e-08  4.39e-04     4s
   6   2.79701413e+04  2.78827996e+04  0.00e+00 4.27e-08  2.24e-04     4s
   7   2.78992673e+04  2.78951276e+04  0.00e+00 9.59e-10  1.06e-05     4s
   8   2.78970023e+04  2.78969981e+04  0.00e+00 2.45e-10  1.06e-08     5s
   9   2.78970000e+04  2.78970000e+04  1.87e-14 1.85e-11  1.07e-14     5s

Barrier solved model in 9 iterations and 4.67 seconds (2.51 work units)
Optimal objective 2.78970000e+04

Crossover log...

       3 DPushes remaining with DInf 0.0000000e+00                 5s
       0 DPushes remaining with DInf 0.0000000e+00                 5s

       5 PPushes remaining with PInf 0.0000000e+00                 5s
       0 PPushes remaining with PInf 0.0000000e+00                 5s

  Push phase complete: Pinf 0.0000000e+00, Dinf 0.0000000e+00      5s


Solved with barrier
Extra simplex iterations after uncrush: 3
Iteration    Objective       Primal Inf.    Dual Inf.      Time
      14    2.7897000e+04   0.000000e+00   0.000000e+00      5s

Solved in 14 iterations and 5.05 seconds (2.77 work units)
Optimal objective  2.789700000e+04
